00000000000000000000000000000000000000000000000000,00000001001000000001011001010000000010000000001000,00000000000000000000000000000000000000000000000000,00101000010000110110000000000000001001001001000100,00000000000000000000000000000000000000000000000000,00000000000000000000000000000000000000000000000000,00000000000000000000000000000000000000000000000000,00000000000000000000000000000000000000000000000000,00000000000000000000000000000000000000000000000000,00000000000000000000000000000000000000000000000000,00000000000000000000000000000000000000000000000000,00000000000000000000000000000000000000000000000000,00000000000000000000000000000000000000000000000000,00000000000000000000000000000000000000000000000000,00000000000000000000000000000000000000000000000000,00000000000000000000000000000000000000000000000000,11010110100101000000100100001000100100000000000010,00000000000010001000000010100111010000110110110001,00000000000000000000000000000000000000000000000000,00000000000000000000000000000000000000000000000000,[],[0, 0, 0, 0, 0, 0, 0, 14, 0, 0, 6, 0, 0, 0, 0, 0, 0, 0, 0, 12, 0, 14, 8, 0, 0, 14, 0, 14, 0, 0, 0, 0, 0, 0, 0, 0, 8, 0, 0, 0, 0, 0, 0, 0, 0, 0, 6, 0, 0, 0],[],[0, 0, 13, 0, 16, 0, 0, 0, 0, 2, 0, 0, 0, 0, 15, 18, 0, 13, 13, 0, 0, 0, 0, 0, 0, 0, 0, 0, 0, 0, 0, 0, 0, 0, 2, 0, 0, 18, 0, 0, 18, 0, 0, 16, 0, 0, 0, 13, 0, 0],[],[],[],[],[],[],[],[],[],[],[],[],[1, 1, 0, 4, 0, 11, 4, 0, 1, 0, 0, 1, 0, 11, 0, 0, 0, 0, 0, 0, 1, 0, 0, 3, 0, 0, 0, 0, 11, 0, 0, 0, 11, 0, 0, 3, 0, 0, 0, 0, 0, 0, 0, 0, 0, 0, 0, 0, 4, 0],[0, 0, 0, 0, 0, 0, 0, 0, 0, 0, 0, 0, 19, 0, 0, 0, 19, 0, 0, 0, 0, 0, 0, 0, 17, 0, 7, 0, 0, 17, 7, 10, 0, 17, 0, 0, 0, 0, 7, 7, 0, 17, 9, 0, 9, 9, 0, 0, 0, 7],[],[][],[42, 29, 31, 41, 39, 49],[40, 43, 2, 14],[3, 48],[46],[18, 4, 9],[0, 23, 11, 35, 8],[30, 44, 38],[28],[1, 13],[25, 21],[19, 22, 7, 10],[12, 33, 16],[17, 15, 47, 37],[45, 24],[27, 36],[],[34],[5, 6, 32, 20],[26]
00000000000000000000000000000000000000000000000000,00000001001000000001011001010000000010000000001000,00000000000000000000000000000000000000000000000000,00101000010000110110000000000000001001001001000100,00000000000000000000000000000000000000000000000000,00000000000000000000000000000000000000000000000000,00000000000000000000000000000000000000000000000000,00000000000000000000000000000000000000000000000000,00000000000000000000000000000000000000000000000000,00000000000000000000000000000000000000000000000000,00000000000000000000000000000000000000000000000000,00000000000000000000000000000000000000000000000000,00000000000000000000000000000000000000000000000000,00000000000000000000000000000000000000000000000000,00000000000000000000000000000000000000000000000000,00000000000000000000000000000000000000000000000000,11010110100101000000100100001000100100000000000010,00000000000010001000000010100111010000110110110001,00000000000000000000000000000000000000000000000000,00000000000000000000000000000000000000000000000000,[],[0, 0, 0, 0, 0, 0, 0, 11, 0, 0, 20, 0, 0, 0, 0, 0, 0, 0, 0, 20, 0, 10, 10, 0, 0, 13, 0, 11, 0, 0, 0, 0, 0, 0, 0, 0, 20, 0, 0, 0, 0, 0, 0, 0, 0, 0, 20, 0, 0, 0],[],[0, 0, 8, 0, 16, 0, 0, 0, 0, 19, 0, 0, 0, 0, 5, 19, 0, 8, 6, 0, 0, 0, 0, 0, 0, 0, 0, 0, 0, 0, 0, 0, 0, 0, 6, 0, 0, 19, 0, 0, 19, 0, 0, 8, 0, 0, 0, 6, 0, 0],[],[],[],[],[],[],[],[],[],[],[],[],[12, 9, 0, 12, 0, 2, 2, 0, 9, 0, 0, 9, 0, 15, 0, 0, 0, 0, 0, 0, 15, 0, 0, 9, 0, 0, 0, 0, 9, 0, 0, 0, 12, 0, 0, 9, 0, 0, 0, 0, 0, 0, 0, 0, 0, 0, 0, 0, 2, 0],[0, 0, 0, 0, 0, 0, 0, 0, 0, 0, 0, 0, 3, 0, 0, 0, 14, 0, 0, 0, 0, 0, 0, 0, 3, 0, 18, 0, 0, 7, 18, 7, 0, 14, 0, 0, 0, 0, 7, 17, 0, 14, 14, 0, 17, 3, 0, 0, 0, 14],[],[][15, 43, 14],[2, 47, 40],[19, 22, 21],[20, 1, 5, 35],[36],[48, 32, 8, 11],[30, 12, 26],[41, 29, 44],[39, 31, 49, 42],[17],[46, 7, 10],[16, 38, 45],[],[18, 9, 4, 34, 37],[6, 13, 28],[25, 27],[],[24, 33],[23, 3],[0]
00000000000000000000000000000000000000000000000000,00000001001000000001011001010000000010000000001000,00000000000000000000000000000000000000000000000000,00101000010000110110000000000000001001001001000100,00000000000000000000000000000000000000000000000000,00000000000000000000000000000000000000000000000000,00000000000000000000000000000000000000000000000000,00000000000000000000000000000000000000000000000000,00000000000000000000000000000000000000000000000000,00000000000000000000000000000000000000000000000000,00000000000000000000000000000000000000000000000000,00000000000000000000000000000000000000000000000000,00000000000000000000000000000000000000000000000000,00000000000000000000000000000000000000000000000000,00000000000000000000000000000000000000000000000000,00000000000000000000000000000000000000000000000000,11010110100101000000100100001000100100000000000010,00000000000010001000000010100111010000110110110001,00000000000000000000000000000000000000000000000000,00000000000000000000000000000000000000000000000000,[],[0, 0, 0, 0, 0, 0, 0, 18, 0, 0, 13, 0, 0, 0, 0, 0, 0, 0, 0, 17, 0, 13, 18, 0, 0, 13, 0, 16, 0, 0, 0, 0, 0, 0, 0, 0, 16, 0, 0, 0, 0, 0, 0, 0, 0, 0, 17, 0, 0, 0],[],[0, 0, 8, 0, 1, 0, 0, 0, 0, 8, 0, 0, 0, 0, 8, 12, 0, 12, 12, 0, 0, 0, 0, 0, 0, 0, 0, 0, 0, 0, 0, 0, 0, 0, 1, 0, 0, 12, 0, 0, 12, 0, 0, 1, 0, 0, 0, 7, 0, 0],[],[],[],[],[],[],[],[],[],[],[],[],[3, 6, 0, 3, 0, 3, 3, 0, 3, 0, 0, 3, 0, 11, 0, 0, 0, 0, 0, 0, 3, 0, 0, 11, 0, 0, 0, 0, 2, 0, 0, 0, 15, 0, 0, 3, 0, 0, 0, 0, 0, 0, 0, 0, 0, 0, 0, 0, 11, 0],[0, 0, 0, 0, 0, 0, 0, 0, 0, 0, 0, 0, 4, 0, 0, 0, 10, 0, 0, 0, 0, 0, 0, 0, 14, 0, 9, 0, 0, 9, 19, 14, 0, 14, 0, 0, 0, 0, 14, 4, 0, 19, 4, 0, 9, 10, 0, 0, 0, 19],[],[][7, 21],[5, 0, 28, 48, 23],[18, 40, 37, 17],[11, 13],[],[22, 19],[39, 49, 45, 44, 33, 16],[47],[4, 34, 2, 15],[8, 32, 6],[46, 36],[12, 26],[14, 43, 9],[38, 31, 42, 29],[27, 25, 10],[24, 41],[],[3],[20, 1, 35],[30]
00000000000000000000000000000000000000000000000000,00000001001000000001011001010000000010000000001000,00000000000000000000000000000000000000000000000000,00101000010000110110000000000000001001001001000100,00000000000000000000000000000000000000000000000000,00000000000000000000000000000000000000000000000000,00000000000000000000000000000000000000000000000000,00000000000000000000000000000000000000000000000000,00000000000000000000000000000000000000000000000000,00000000000000000000000000000000000000000000000000,00000000000000000000000000000000000000000000000000,00000000000000000000000000000000000000000000000000,00000000000000000000000000000000000000000000000000,00000000000000000000000000000000000000000000000000,00000000000000000000000000000000000000000000000000,00000000000000000000000000000000000000000000000000,11010110100101000000100100001000100100000000000010,00000000000010001000000010100111010000110110110001,00000000000000000000000000000000000000000000000000,00000000000000000000000000000000000000000000000000,[],[0, 0, 0, 0, 0, 0, 0, 18, 0, 0, 1, 0, 0, 0, 0, 0, 0, 0, 0, 20, 0, 19, 18, 0, 0, 19, 0, 19, 0, 0, 0, 0, 0, 0, 0, 0, 20, 0, 0, 0, 0, 0, 0, 0, 0, 0, 1, 0, 0, 0],[],[0, 0, 8, 0, 12, 0, 0, 0, 0, 10, 0, 0, 0, 0, 3, 11, 0, 12, 3, 0, 0, 0, 0, 0, 0, 0, 0, 0, 0, 0, 0, 0, 0, 0, 8, 0, 0, 11, 0, 0, 3, 0, 0, 11, 0, 0, 0, 11, 0, 0],[],[],[],[],[],[],[],[],[],[],[],[],[14, 15, 0, 13, 0, 9, 13, 0, 13, 0, 0, 14, 0, 9, 0, 0, 0, 0, 0, 0, 9, 0, 0, 9, 0, 0, 0, 0, 13, 0, 0, 0, 9, 0, 0, 16, 0, 0, 0, 0, 0, 0, 0, 0, 0, 0, 0, 0, 14, 0],[0, 0, 0, 0, 0, 0, 0, 0, 0, 0, 0, 0, 6, 0, 0, 0, 4, 0, 0, 0, 0, 0, 0, 0, 4, 0, 7, 0, 0, 4, 2, 2, 0, 2, 0, 0, 0, 0, 4, 4, 0, 6, 7, 0, 2, 7, 0, 0, 0, 4],[],[][29, 38, 26],[34, 9, 4],[44, 49, 45, 41, 39],[46, 21, 25, 22, 10],[],[40, 18],[6, 1, 0, 3, 35],[19],[16, 31],[14, 2],[48, 23, 28, 20, 11],[47, 37],[],[17, 43, 15],[],[27, 7],[33, 12],[24, 30, 42],[36],[32, 13, 8, 5]
00000000000000000000000000000000000000000000000000,00000001001000000001011001010000000010000000001000,00000000000000000000000000000000000000000000000000,00101000010000110110000000000000001001001001000100,00000000000000000000000000000000000000000000000000,00000000000000000000000000000000000000000000000000,00000000000000000000000000000000000000000000000000,00000000000000000000000000000000000000000000000000,00000000000000000000000000000000000000000000000000,00000000000000000000000000000000000000000000000000,00000000000000000000000000000000000000000000000000,00000000000000000000000000000000000000000000000000,00000000000000000000000000000000000000000000000000,00000000000000000000000000000000000000000000000000,00000000000000000000000000000000000000000000000000,00000000000000000000000000000000000000000000000000,11010110100101000000100100001000100100000000000010,00000000000010001000000010100111010000110110110001,00000000000000000000000000000000000000000000000000,00000000000000000000000000000000000000000000000000,[],[0, 0, 0, 0, 0, 0, 0, 8, 0, 0, 8, 0, 0, 0, 0, 0, 0, 0, 0, 8, 0, 8, 16, 0, 0, 13, 0, 11, 0, 0, 0, 0, 0, 0, 0, 0, 8, 0, 0, 0, 0, 0, 0, 0, 0, 0, 11, 0, 0, 0],[],[0, 0, 19, 0, 12, 0, 0, 0, 0, 19, 0, 0, 0, 0, 17, 17, 0, 19, 18, 0, 0, 0, 0, 0, 0, 0, 0, 0, 0, 0, 0, 0, 0, 0, 17, 0, 0, 18, 0, 0, 12, 0, 0, 12, 0, 0, 0, 18, 0, 0],[],[],[],[],[],[],[],[],[],[],[],[],[9, 2, 0, 2, 0, 10, 9, 0, 9, 0, 0, 10, 0, 14, 0, 0, 0, 0, 0, 0, 10, 0, 0, 2, 0, 0, 0, 0, 9, 0, 0, 0, 10, 0, 0, 6, 0, 0, 0, 0, 0, 0, 0, 0, 0, 0, 0, 0, 2, 0],[0, 0, 0, 0, 0, 0, 0, 0, 0, 0, 0, 0, 3, 0, 0, 0, 15, 0, 0, 0, 0, 0, 0, 0, 3, 0, 1, 0, 0, 1, 1, 5, 0, 15, 0, 0, 0, 0, 7, 1, 0, 7, 3, 0, 1, 5, 0, 0, 0, 7],[],[][30, 41],[10, 25, 46, 22],[9, 43],[11, 1, 28, 48],[6, 32, 13],[17, 2, 37, 18],[49, 12, 45, 42, 29],[39, 44],[38, 26, 24, 33],[27, 21],[3, 35, 5],[15, 4, 40],[20, 8],[23, 0],[34, 47, 14],[],[],[31, 16],[],[19, 36, 7]
00000000000000000000000000000000000000000000000000,00000001001000000001011001010000000010000000001000,00000000000000000000000000000000000000000000000000,00101000010000110110000000000000001001001001000100,00000000000000000000000000000000000000000000000000,00000000000000000000000000000000000000000000000000,00000000000000000000000000000000000000000000000000,00000000000000000000000000000000000000000000000000,00000000000000000000000000000000000000000000000000,00000000000000000000000000000000000000000000000000,00000000000000000000000000000000000000000000000000,00000000000000000000000000000000000000000000000000,00000000000000000000000000000000000000000000000000,00000000000000000000000000000000000000000000000000,00000000000000000000000000000000000000000000000000,00000000000000000000000000000000000000000000000000,11010110100101000000100100001000100100000000000010,00000000000010001000000010100111010000110110110001,00000000000000000000000000000000000000000000000000,00000000000000000000000000000000000000000000000000,[],[0, 0, 0, 0, 0, 0, 0, 6, 0, 0, 2, 0, 0, 0, 0, 0, 0, 0, 0, 2, 0, 2, 2, 0, 0, 2, 0, 6, 0, 0, 0, 0, 0, 0, 0, 0, 2, 0, 0, 0, 0, 0, 0, 0, 0, 0, 3, 0, 0, 0],[],[0, 0, 11, 0, 14, 0, 0, 0, 0, 14, 0, 0, 0, 0, 14, 13, 0, 16, 16, 0, 0, 0, 0, 0, 0, 0, 0, 0, 0, 0, 0, 0, 0, 0, 13, 0, 0, 11, 0, 0, 11, 0, 0, 13, 0, 0, 0, 11, 0, 0],[],[],[],[],[],[],[],[],[],[],[],[],[9, 20, 0, 7, 0, 7, 7, 0, 9, 0, 0, 7, 0, 18, 0, 0, 0, 0, 0, 0, 20, 0, 0, 10, 0, 0, 0, 0, 9, 0, 0, 0, 18, 0, 0, 10, 0, 0, 0, 0, 0, 0, 0, 0, 0, 0, 0, 0, 18, 0],[0, 0, 0, 0, 0, 0, 0, 0, 0, 0, 0, 0, 12, 0, 0, 0, 19, 0, 0, 0, 0, 0, 0, 0, 4, 0, 19, 0, 0, 4, 15, 4, 0, 4, 0, 0, 0, 0, 1, 1, 0, 4, 1, 0, 15, 1, 0, 0, 0, 1],[],[][35, 11, 8, 5, 0, 20, 23],[18, 37, 43, 34],[15, 47, 9],[],[16, 38],[],[29, 12, 31, 26, 39],[3],[46, 22, 21, 36],[40],[45, 49, 42],[1, 6],[48],[14, 2, 17, 4],[7, 27, 25],[41, 44],[],[28, 13, 32],[24, 30, 33],[10, 19]
00000000000000000000000000000000000000000000000000,00000001001000000001011001010000000010000000001000,00000000000000000000000000000000000000000000000000,00101000010000110110000000000000001001001001000100,00000000000000000000000000000000000000000000000000,00000000000000000000000000000000000000000000000000,00000000000000000000000000000000000000000000000000,00000000000000000000000000000000000000000000000000,00000000000000000000000000000000000000000000000000,00000000000000000000000000000000000000000000000000,00000000000000000000000000000000000000000000000000,00000000000000000000000000000000000000000000000000,00000000000000000000000000000000000000000000000000,00000000000000000000000000000000000000000000000000,00000000000000000000000000000000000000000000000000,00000000000000000000000000000000000000000000000000,11010110100101000000100100001000100100000000000010,00000000000010001000000010100111010000110110110001,00000000000000000000000000000000000000000000000000,00000000000000000000000000000000000000000000000000,[],[0, 0, 0, 0, 0, 0, 0, 19, 0, 0, 13, 0, 0, 0, 0, 0, 0, 0, 0, 17, 0, 13, 19, 0, 0, 16, 0, 13, 0, 0, 0, 0, 0, 0, 0, 0, 17, 0, 0, 0, 0, 0, 0, 0, 0, 0, 17, 0, 0, 0],[],[0, 0, 4, 0, 4, 0, 0, 0, 0, 4, 0, 0, 0, 0, 3, 3, 0, 2, 4, 0, 0, 0, 0, 0, 0, 0, 0, 0, 0, 0, 0, 0, 0, 0, 10, 0, 0, 10, 0, 0, 2, 0, 0, 4, 0, 0, 0, 6, 0, 0],[],[],[],[],[],[],[],[],[],[],[],[],[14, 12, 0, 1, 0, 14, 1, 0, 12, 0, 0, 12, 0, 12, 0, 0, 0, 0, 0, 0, 8, 0, 0, 1, 0, 0, 0, 0, 8, 0, 0, 0, 8, 0, 0, 8, 0, 0, 0, 0, 0, 0, 0, 0, 0, 0, 0, 0, 14, 0],[0, 0, 0, 0, 0, 0, 0, 0, 0, 0, 0, 0, 15, 0, 0, 0, 20, 0, 0, 0, 0, 0, 0, 0, 11, 0, 20, 0, 0, 18, 7, 18, 0, 20, 0, 0, 0, 0, 11, 7, 0, 7, 7, 0, 15, 7, 0, 0, 0, 7],[],[][1, 6, 11, 48],[14, 17, 4, 40, 9],[35],[5, 13, 20, 28, 0],[],[2, 15],[44, 41, 38, 49],[25, 21, 10],[12, 26, 16, 30],[45, 31],[8, 23, 3],[47, 43, 34, 18],[],[33, 39],[32],[46, 36],[19, 7],[42, 29, 24],[22, 27],[37]
00000000000000000000000000000000000000000000000000,00000001001000000001011001010000000010000000001000,00000000000000000000000000000000000000000000000000,00101000010000110110000000000000001001001001000100,00000000000000000000000000000000000000000000000000,00000000000000000000000000000000000000000000000000,00000000000000000000000000000000000000000000000000,00000000000000000000000000000000000000000000000000,00000000000000000000000000000000000000000000000000,00000000000000000000000000000000000000000000000000,00000000000000000000000000000000000000000000000000,00000000000000000000000000000000000000000000000000,00000000000000000000000000000000000000000000000000,00000000000000000000000000000000000000000000000000,00000000000000000000000000000000000000000000000000,00000000000000000000000000000000000000000000000000,11010110100101000000100100001000100100000000000010,00000000000010001000000010100111010000110110110001,00000000000000000000000000000000000000000000000000,00000000000000000000000000000000000000000000000000,[],[0, 0, 0, 0, 0, 0, 0, 15, 0, 0, 6, 0, 0, 0, 0, 0, 0, 0, 0, 6, 0, 17, 13, 0, 0, 15, 0, 6, 0, 0, 0, 0, 0, 0, 0, 0, 17, 0, 0, 0, 0, 0, 0, 0, 0, 0, 15, 0, 0, 0],[],[0, 0, 18, 0, 12, 0, 0, 0, 0, 18, 0, 0, 0, 0, 16, 16, 0, 12, 10, 0, 0, 0, 0, 0, 0, 0, 0, 0, 0, 0, 0, 0, 0, 0, 18, 0, 0, 12, 0, 0, 18, 0, 0, 10, 0, 0, 0, 10, 0, 0],[],[],[],[],[],[],[],[],[],[],[],[],[3, 3, 0, 3, 0, 7, 7, 0, 19, 0, 0, 4, 0, 5, 0, 0, 0, 0, 0, 0, 4, 0, 0, 3, 0, 0, 0, 0, 3, 0, 0, 0, 4, 0, 0, 4, 0, 0, 0, 0, 0, 0, 0, 0, 0, 0, 0, 0, 7, 0],[0, 0, 0, 0, 0, 0, 0, 0, 0, 0, 0, 0, 11, 0, 0, 0, 14, 0, 0, 0, 0, 0, 0, 0, 9, 0, 9, 0, 0, 2, 11, 14, 0, 2, 0, 0, 0, 0, 1, 2, 0, 2, 9, 0, 2, 2, 0, 0, 0, 1],[],[][26, 39],[7, 10, 19, 22, 46],[40, 34, 15],[17, 43, 2, 4],[37, 14],[],[5, 23, 13],[8, 3, 28, 6],[44, 33, 24, 31, 41],[18, 9],[47],[20, 0, 1],[11, 48],[30, 42, 38, 49],[36, 25],[32, 35],[],[45, 29],[27, 21],[12, 16]
00000000000000000000000000000000000000000000000000,00000001001000000001011001010000000010000000001000,00000000000000000000000000000000000000000000000000,00101000010000110110000000000000001001001001000100,00000000000000000000000000000000000000000000000000,00000000000000000000000000000000000000000000000000,00000000000000000000000000000000000000000000000000,00000000000000000000000000000000000000000000000000,00000000000000000000000000000000000000000000000000,00000000000000000000000000000000000000000000000000,00000000000000000000000000000000000000000000000000,00000000000000000000000000000000000000000000000000,00000000000000000000000000000000000000000000000000,00000000000000000000000000000000000000000000000000,00000000000000000000000000000000000000000000000000,00000000000000000000000000000000000000000000000000,11010110100101000000100100001000100100000000000010,00000000000010001000000010100111010000110110110001,00000000000000000000000000000000000000000000000000,00000000000000000000000000000000000000000000000000,[],[0, 0, 0, 0, 0, 0, 0, 12, 0, 0, 12, 0, 0, 0, 0, 0, 0, 0, 0, 20, 0, 12, 12, 0, 0, 5, 0, 20, 0, 0, 0, 0, 0, 0, 0, 0, 5, 0, 0, 0, 0, 0, 0, 0, 0, 0, 5, 0, 0, 0],[],[0, 0, 4, 0, 4, 0, 0, 0, 0, 19, 0, 0, 0, 0, 11, 19, 0, 18, 10, 0, 0, 0, 0, 0, 0, 0, 0, 0, 0, 0, 0, 0, 0, 0, 11, 0, 0, 19, 0, 0, 11, 0, 0, 18, 0, 0, 0, 10, 0, 0],[],[],[],[],[],[],[],[],[],[],[],[],[17, 16, 0, 17, 0, 15, 6, 0, 6, 0, 0, 6, 0, 15, 0, 0, 0, 0, 0, 0, 6, 0, 0, 15, 0, 0, 0, 0, 17, 0, 0, 0, 15, 0, 0, 9, 0, 0, 0, 0, 0, 0, 0, 0, 0, 0, 0, 0, 9, 0],[0, 0, 0, 0, 0, 0, 0, 0, 0, 0, 0, 0, 14, 0, 0, 0, 2, 0, 0, 0, 0, 0, 0, 0, 3, 0, 13, 0, 0, 8, 8, 3, 0, 2, 0, 0, 0, 0, 2, 3, 0, 13, 8, 0, 3, 14, 0, 0, 0, 13],[],[][12, 26, 39, 49],[35, 11, 8, 48, 13, 20],[33, 30, 31, 42],[9, 47],[40, 18, 14, 15],[21],[],[36],[10, 7, 19, 25, 46, 22],[41, 44],[23, 6, 5, 0],[37, 43],[28, 1],[29, 45, 16],[34, 4],[3, 32],[27],[24, 38],[17, 2],[]
00000000000000000000000000000000000000000000000000,00000001001000000001011001010000000010000000001000,00000000000000000000000000000000000000000000000000,00101000010000110110000000000000001001001001000100,00000000000000000000000000000000000000000000000000,00000000000000000000000000000000000000000000000000,00000000000000000000000000000000000000000000000000,00000000000000000000000000000000000000000000000000,00000000000000000000000000000000000000000000000000,00000000000000000000000000000000000000000000000000,00000000000000000000000000000000000000000000000000,00000000000000000000000000000000000000000000000000,00000000000000000000000000000000000000000000000000,00000000000000000000000000000000000000000000000000,00000000000000000000000000000000000000000000000000,00000000000000000000000000000000000000000000000000,11010110100101000000100100001000100100000000000010,00000000000010001000000010100111010000110110110001,00000000000000000000000000000000000000000000000000,00000000000000000000000000000000000000000000000000,[],[0, 0, 0, 0, 0, 0, 0, 19, 0, 0, 6, 0, 0, 0, 0, 0, 0, 0, 0, 16, 0, 17, 17, 0, 0, 19, 0, 17, 0, 0, 0, 0, 0, 0, 0, 0, 16, 0, 0, 0, 0, 0, 0, 0, 0, 0, 19, 0, 0, 0],[],[0, 0, 4, 0, 1, 0, 0, 0, 0, 1, 0, 0, 0, 0, 4, 1, 0, 4, 2, 0, 0, 0, 0, 0, 0, 0, 0, 0, 0, 0, 0, 0, 0, 0, 2, 0, 0, 1, 0, 0, 5, 0, 0, 1, 0, 0, 0, 5, 0, 0],[],[],[],[],[],[],[],[],[],[],[],[],[9, 13, 0, 15, 0, 15, 13, 0, 12, 0, 0, 15, 0, 12, 0, 0, 0, 0, 0, 0, 15, 0, 0, 13, 0, 0, 0, 0, 9, 0, 0, 0, 9, 0, 0, 18, 0, 0, 0, 0, 0, 0, 0, 0, 0, 0, 0, 0, 9, 0],[0, 0, 0, 0, 0, 0, 0, 0, 0, 0, 0, 0, 8, 0, 0, 0, 10, 0, 0, 0, 0, 0, 0, 0, 7, 0, 14, 0, 0, 11, 11, 7, 0, 7, 0, 0, 0, 0, 7, 14, 0, 8, 10, 0, 7, 14, 0, 0, 0, 14],[],[][],[],[1, 20, 3, 6, 35],[19, 22],[9, 47],[5, 32],[18, 14, 37, 34],[8],[12, 30, 42],[46, 21, 7],[15, 17, 4, 40],[0, 13, 23],[10],[11, 28, 48],[33, 45, 31, 39],[27, 25, 36],[41, 26, 44],[49, 29],[38, 24, 16],[43, 2]
00000000000000000000000000000000000000000000000000,00000001001000000001011001010000000010000000001000,00000000000000000000000000000000000000000000000000,00101000010000110110000000000000001001001001000100,00000000000000000000000000000000000000000000000000,00000000000000000000000000000000000000000000000000,00000000000000000000000000000000000000000000000000,00000000000000000000000000000000000000000000000000,00000000000000000000000000000000000000000000000000,00000000000000000000000000000000000000000000000000,00000000000000000000000000000000000000000000000000,00000000000000000000000000000000000000000000000000,00000000000000000000000000000000000000000000000000,00000000000000000000000000000000000000000000000000,00000000000000000000000000000000000000000000000000,00000000000000000000000000000000000000000000000000,11010110100101000000100100001000100100000000000010,00000000000010001000000010100111010000110110110001,00000000000000000000000000000000000000000000000000,00000000000000000000000000000000000000000000000000,[],[0, 0, 0, 0, 0, 0, 0, 19, 0, 0, 7, 0, 0, 0, 0, 0, 0, 0, 0, 19, 0, 7, 8, 0, 0, 8, 0, 19, 0, 0, 0, 0, 0, 0, 0, 0, 9, 0, 0, 0, 0, 0, 0, 0, 0, 0, 8, 0, 0, 0],[],[0, 0, 16, 0, 20, 0, 0, 0, 0, 16, 0, 0, 0, 0, 5, 15, 0, 18, 18, 0, 0, 0, 0, 0, 0, 0, 0, 0, 0, 0, 0, 0, 0, 0, 15, 0, 0, 18, 0, 0, 16, 0, 0, 15, 0, 0, 0, 5, 0, 0],[],[],[],[],[],[],[],[],[],[],[],[],[14, 11, 0, 3, 0, 12, 11, 0, 12, 0, 0, 3, 0, 12, 0, 0, 0, 0, 0, 0, 12, 0, 0, 3, 0, 0, 0, 0, 11, 0, 0, 0, 14, 0, 0, 14, 0, 0, 0, 0, 0, 0, 0, 0, 0, 0, 0, 0, 12, 0],[0, 0, 0, 0, 0, 0, 0, 0, 0, 0, 0, 0, 4, 0, 0, 0, 2, 0, 0, 0, 0, 0, 0, 0, 2, 0, 17, 0, 0, 4, 13, 13, 0, 4, 0, 0, 0, 0, 17, 13, 0, 2, 2, 0, 4, 6, 0, 0, 0, 6],[],[][24, 31, 39, 16, 29],[20, 48, 8, 11],[44, 41, 26, 12],[13, 23, 32, 5, 1],[45, 33, 30],[7],[6],[10, 36, 19, 21],[47, 40, 17, 37],[28, 35],[14, 4, 9],[22, 46],[],[3, 0],[43, 34, 18],[49, 42],[15, 2],[27, 25],[38],[]
00000000000000000000000000000000000000000000000000,00000001001000000001011001010000000010000000001000,00000000000000000000000000000000000000000000000000,00101000010000110110000000000000001001001001000100,00000000000000000000000000000000000000000000000000,00000000000000000000000000000000000000000000000000,00000000000000000000000000000000000000000000000000,00000000000000000000000000000000000000000000000000,00000000000000000000000000000000000000000000000000,00000000000000000000000000000000000000000000000000,00000000000000000000000000000000000000000000000000,00000000000000000000000000000000000000000000000000,00000000000000000000000000000000000000000000000000,00000000000000000000000000000000000000000000000000,00000000000000000000000000000000000000000000000000,00000000000000000000000000000000000000000000000000,11010110100101000000100100001000100100000000000010,00000000000010001000000010100111010000110110110001,00000000000000000000000000000000000000000000000000,00000000000000000000000000000000000000000000000000,[],[0, 0, 0, 0, 0, 0, 0, 17, 0, 0, 6, 0, 0, 0, 0, 0, 0, 0, 0, 17, 0, 11, 11, 0, 0, 11, 0, 19, 0, 0, 0, 0, 0, 0, 0, 0, 6, 0, 0, 0, 0, 0, 0, 0, 0, 0, 19, 0, 0, 0],[],[0, 0, 5, 0, 7, 0, 0, 0, 0, 14, 0, 0, 0, 0, 14, 4, 0, 7, 4, 0, 0, 0, 0, 0, 0, 0, 0, 0, 0, 0, 0, 0, 0, 0, 7, 0, 0, 7, 0, 0, 14, 0, 0, 7, 0, 0, 0, 4, 0, 0],[],[],[],[],[],[],[],[],[],[],[],[],[8, 9, 0, 8, 0, 2, 18, 0, 9, 0, 0, 9, 0, 20, 0, 0, 0, 0, 0, 0, 2, 0, 0, 18, 0, 0, 0, 0, 20, 0, 0, 0, 8, 0, 0, 8, 0, 0, 0, 0, 0, 0, 0, 0, 0, 0, 0, 0, 20, 0],[0, 0, 0, 0, 0, 0, 0, 0, 0, 0, 0, 0, 3, 0, 0, 0, 15, 0, 0, 0, 0, 0, 0, 0, 3, 0, 12, 0, 0, 3, 1, 1, 0, 1, 0, 0, 0, 0, 1, 1, 0, 1, 3, 0, 16, 3, 0, 0, 0, 12],[],[][45, 12, 44],[40, 47, 15],[48, 8],[25],[3, 5],[37, 9, 34],[42, 30, 24, 38, 31],[6, 20, 13],[43, 2, 14],[22, 19],[0, 28, 32, 23],[1, 35, 11],[29, 49],[7, 36, 27],[17, 4, 18],[26, 33],[],[10, 46, 21],[],[41, 39, 16]
00000000000000000000000000000000000000000000000000,00000001001000000001011001010000000010000000001000,00000000000000000000000000000000000000000000000000,00101000010000110110000000000000001001001001000100,00000000000000000000000000000000000000000000000000,00000000000000000000000000000000000000000000000000,00000000000000000000000000000000000000000000000000,00000000000000000000000000000000000000000000000000,00000000000000000000000000000000000000000000000000,00000000000000000000000000000000000000000000000000,00000000000000000000000000000000000000000000000000,00000000000000000000000000000000000000000000000000,00000000000000000000000000000000000000000000000000,00000000000000000000000000000000000000000000000000,00000000000000000000000000000000000000000000000000,00000000000000000000000000000000000000000000000000,11010110100101000000100100001000100100000000000010,00000000000010001000000010100111010000110110110001,00000000000000000000000000000000000000000000000000,00000000000000000000000000000000000000000000000000,[],[0, 0, 0, 0, 0, 0, 0, 12, 0, 0, 12, 0, 0, 0, 0, 0, 0, 0, 0, 11, 0, 12, 11, 0, 0, 19, 0, 2, 0, 0, 0, 0, 0, 0, 0, 0, 2, 0, 0, 0, 0, 0, 0, 0, 0, 0, 12, 0, 0, 0],[],[0, 0, 10, 0, 4, 0, 0, 0, 0, 14, 0, 0, 0, 0, 14, 18, 0, 14, 14, 0, 0, 0, 0, 0, 0, 0, 0, 0, 0, 0, 0, 0, 0, 0, 10, 0, 0, 7, 0, 0, 7, 0, 0, 7, 0, 0, 0, 4, 0, 0],[],[],[],[],[],[],[],[],[],[],[],[],[3, 16, 0, 5, 0, 9, 3, 0, 3, 0, 0, 9, 0, 16, 0, 0, 0, 0, 0, 0, 16, 0, 0, 9, 0, 0, 0, 0, 3, 0, 0, 0, 5, 0, 0, 5, 0, 0, 0, 0, 0, 0, 0, 0, 0, 0, 0, 0, 3, 0],[0, 0, 0, 0, 0, 0, 0, 0, 0, 0, 0, 0, 1, 0, 0, 0, 15, 0, 0, 0, 0, 0, 0, 0, 20, 0, 15, 0, 0, 6, 1, 13, 0, 13, 0, 0, 0, 0, 6, 15, 0, 13, 1, 0, 15, 20, 0, 0, 0, 1],[],[][42, 49, 26, 45, 44],[0, 1, 35, 5],[24, 38, 12],[34, 14, 40],[],[13, 48, 11, 8],[39, 31, 29],[],[15, 37, 18, 4, 9],[46, 21],[2, 43, 17],[6, 28, 32],[],[7],[3, 20, 23],[19, 36, 10],[25, 27, 22],[30, 16],[47],[41, 33]
00000000000000000000000000000000000000000000000000,00000001001000000001011001010000000010000000001000,00000000000000000000000000000000000000000000000000,00101000010000110110000000000000001001001001000100,00000000000000000000000000000000000000000000000000,00000000000000000000000000000000000000000000000000,00000000000000000000000000000000000000000000000000,00000000000000000000000000000000000000000000000000,00000000000000000000000000000000000000000000000000,00000000000000000000000000000000000000000000000000,00000000000000000000000000000000000000000000000000,00000000000000000000000000000000000000000000000000,00000000000000000000000000000000000000000000000000,00000000000000000000000000000000000000000000000000,00000000000000000000000000000000000000000000000000,00000000000000000000000000000000000000000000000000,11010110100101000000100100001000100100000000000010,00000000000010001000000010100111010000110110110001,00000000000000000000000000000000000000000000000000,00000000000000000000000000000000000000000000000000,[],[0, 0, 0, 0, 0, 0, 0, 4, 0, 0, 16, 0, 0, 0, 0, 0, 0, 0, 0, 13, 0, 6, 4, 0, 0, 13, 0, 4, 0, 0, 0, 0, 0, 0, 0, 0, 13, 0, 0, 0, 0, 0, 0, 0, 0, 0, 4, 0, 0, 0],[],[0, 0, 19, 0, 8, 0, 0, 0, 0, 11, 0, 0, 0, 0, 8, 5, 0, 15, 19, 0, 0, 0, 0, 0, 0, 0, 0, 0, 0, 0, 0, 0, 0, 0, 19, 0, 0, 11, 0, 0, 15, 0, 0, 19, 0, 0, 0, 11, 0, 0],[],[],[],[],[],[],[],[],[],[],[],[],[1, 3, 0, 3, 0, 2, 1, 0, 1, 0, 0, 3, 0, 18, 0, 0, 0, 0, 0, 0, 18, 0, 0, 2, 0, 0, 0, 0, 1, 0, 0, 0, 18, 0, 0, 18, 0, 0, 0, 0, 0, 0, 0, 0, 0, 0, 0, 0, 2, 0],[0, 0, 0, 0, 0, 0, 0, 0, 0, 0, 0, 0, 7, 0, 0, 0, 12, 0, 0, 0, 0, 0, 0, 0, 7, 0, 7, 0, 0, 9, 10, 9, 0, 14, 0, 0, 0, 0, 14, 14, 0, 12, 12, 0, 10, 9, 0, 0, 0, 7],[],[][],[44, 42, 45, 12],[39, 31, 41, 24, 16, 29],[4, 18, 9],[],[10, 36, 27],[0, 20, 13, 3],[23, 35],[7, 21, 46, 22],[43, 2, 37],[38],[6, 11],[],[40, 14, 47],[15, 17, 34],[33],[26, 49, 30],[48, 32, 28],[25, 19],[5, 1, 8]
00000000000000000000000000000000000000000000000000,00000001001000000001011001010000000010000000001000,00000000000000000000000000000000000000000000000000,00101000010000110110000000000000001001001001000100,00000000000000000000000000000000000000000000000000,00000000000000000000000000000000000000000000000000,00000000000000000000000000000000000000000000000000,00000000000000000000000000000000000000000000000000,00000000000000000000000000000000000000000000000000,00000000000000000000000000000000000000000000000000,00000000000000000000000000000000000000000000000000,00000000000000000000000000000000000000000000000000,00000000000000000000000000000000000000000000000000,00000000000000000000000000000000000000000000000000,00000000000000000000000000000000000000000000000000,00000000000000000000000000000000000000000000000000,11010110100101000000100100001000100100000000000010,00000000000010001000000010100111010000110110110001,00000000000000000000000000000000000000000000000000,00000000000000000000000000000000000000000000000000,[],[0, 0, 0, 0, 0, 0, 0, 12, 0, 0, 13, 0, 0, 0, 0, 0, 0, 0, 0, 12, 0, 6, 14, 0, 0, 16, 0, 13, 0, 0, 0, 0, 0, 0, 0, 0, 12, 0, 0, 0, 0, 0, 0, 0, 0, 0, 16, 0, 0, 0],[],[0, 0, 4, 0, 15, 0, 0, 0, 0, 2, 0, 0, 0, 0, 10, 4, 0, 11, 15, 0, 0, 0, 0, 0, 0, 0, 0, 0, 0, 0, 0, 0, 0, 0, 11, 0, 0, 11, 0, 0, 10, 0, 0, 4, 0, 0, 0, 4, 0, 0],[],[],[],[],[],[],[],[],[],[],[],[],[7, 20, 0, 7, 0, 8, 8, 0, 7, 0, 0, 17, 0, 17, 0, 0, 0, 0, 0, 0, 7, 0, 0, 7, 0, 0, 0, 0, 7, 0, 0, 0, 20, 0, 0, 8, 0, 0, 0, 0, 0, 0, 0, 0, 0, 0, 0, 0, 20, 0],[0, 0, 0, 0, 0, 0, 0, 0, 0, 0, 0, 0, 3, 0, 0, 0, 5, 0, 0, 0, 0, 0, 0, 0, 1, 0, 1, 0, 0, 1, 5, 3, 0, 5, 0, 0, 0, 0, 19, 5, 0, 18, 19, 0, 1, 19, 0, 0, 0, 3],[],[][42, 38, 26, 24, 39],[25],[28, 3, 8, 1],[44, 29, 49, 12],[7, 36],[30, 33, 45],[37, 40, 43],[10, 46, 19],[35, 0, 32, 23],[14, 34],[18, 15],[],[22, 21, 27],[16, 41, 31],[48, 6, 5],[13, 11],[20],[17, 47],[4, 9, 2],[]
00000000000000000000000000000000000000000000000000,00000001001000000001011001010000000010000000001000,00000000000000000000000000000000000000000000000000,00101000010000110110000000000000001001001001000100,00000000000000000000000000000000000000000000000000,00000000000000000000000000000000000000000000000000,00000000000000000000000000000000000000000000000000,00000000000000000000000000000000000000000000000000,00000000000000000000000000000000000000000000000000,00000000000000000000000000000000000000000000000000,00000000000000000000000000000000000000000000000000,00000000000000000000000000000000000000000000000000,00000000000000000000000000000000000000000000000000,00000000000000000000000000000000000000000000000000,00000000000000000000000000000000000000000000000000,00000000000000000000000000000000000000000000000000,11010110100101000000100100001000100100000000000010,00000000000010001000000010100111010000110110110001,00000000000000000000000000000000000000000000000000,00000000000000000000000000000000000000000000000000,[],[0, 0, 0, 0, 0, 0, 0, 9, 0, 0, 6, 0, 0, 0, 0, 0, 0, 0, 0, 16, 0, 6, 1, 0, 0, 1, 0, 1, 0, 0, 0, 0, 0, 0, 0, 0, 9, 0, 0, 0, 0, 0, 0, 0, 0, 0, 1, 0, 0, 0],[],[0, 0, 14, 0, 14, 0, 0, 0, 0, 19, 0, 0, 0, 0, 14, 19, 0, 15, 19, 0, 0, 0, 0, 0, 0, 0, 0, 0, 0, 0, 0, 0, 0, 0, 5, 0, 0, 5, 0, 0, 11, 0, 0, 15, 0, 0, 0, 11, 0, 0],[],[],[],[],[],[],[],[],[],[],[],[],[3, 10, 0, 3, 0, 18, 3, 0, 18, 0, 0, 10, 0, 18, 0, 0, 0, 0, 0, 0, 18, 0, 0, 8, 0, 0, 0, 0, 3, 0, 0, 0, 8, 0, 0, 8, 0, 0, 0, 0, 0, 0, 0, 0, 0, 0, 0, 0, 18, 0],[0, 0, 0, 0, 0, 0, 0, 0, 0, 0, 0, 0, 2, 0, 0, 0, 13, 0, 0, 0, 0, 0, 0, 0, 13, 0, 20, 0, 0, 2, 20, 4, 0, 4, 0, 0, 0, 0, 12, 20, 0, 12, 4, 0, 4, 12, 0, 0, 0, 4],[],[][14, 2, 34, 18, 4, 40],[37],[29, 42, 49, 45],[33, 16, 12],[35, 20],[39, 26, 38],[21, 22, 46],[1, 6, 32],[13, 28, 48, 11, 5],[25, 27, 10],[41],[19, 36, 7],[],[24, 31, 44, 30],[43, 15, 47],[],[9],[17],[23, 3],[0, 8]
00000000000000000000000000000000000000000000000000,00000001001000000001011001010000000010000000001000,00000000000000000000000000000000000000000000000000,00101000010000110110000000000000001001001001000100,00000000000000000000000000000000000000000000000000,00000000000000000000000000000000000000000000000000,00000000000000000000000000000000000000000000000000,00000000000000000000000000000000000000000000000000,00000000000000000000000000000000000000000000000000,00000000000000000000000000000000000000000000000000,00000000000000000000000000000000000000000000000000,00000000000000000000000000000000000000000000000000,00000000000000000000000000000000000000000000000000,00000000000000000000000000000000000000000000000000,00000000000000000000000000000000000000000000000000,00000000000000000000000000000000000000000000000000,11010110100101000000100100001000100100000000000010,00000000000010001000000010100111010000110110110001,00000000000000000000000000000000000000000000000000,00000000000000000000000000000000000000000000000000,[],[0, 0, 0, 0, 0, 0, 0, 18, 0, 0, 17, 0, 0, 0, 0, 0, 0, 0, 0, 14, 0, 10, 17, 0, 0, 18, 0, 10, 0, 0, 0, 0, 0, 0, 0, 0, 17, 0, 0, 0, 0, 0, 0, 0, 0, 0, 10, 0, 0, 0],[],[0, 0, 6, 0, 15, 0, 0, 0, 0, 12, 0, 0, 0, 0, 7, 6, 0, 7, 15, 0, 0, 0, 0, 0, 0, 0, 0, 0, 0, 0, 0, 0, 0, 0, 5, 0, 0, 6, 0, 0, 6, 0, 0, 5, 0, 0, 0, 7, 0, 0],[],[],[],[],[],[],[],[],[],[],[],[],[16, 2, 0, 4, 0, 4, 4, 0, 1, 0, 0, 8, 0, 16, 0, 0, 0, 0, 0, 0, 4, 0, 0, 1, 0, 0, 0, 0, 2, 0, 0, 0, 1, 0, 0, 2, 0, 0, 0, 0, 0, 0, 0, 0, 0, 0, 0, 0, 1, 0],[0, 0, 0, 0, 0, 0, 0, 0, 0, 0, 0, 0, 9, 0, 0, 0, 19, 0, 0, 0, 0, 0, 0, 0, 9, 0, 11, 0, 0, 11, 9, 3, 0, 9, 0, 0, 0, 0, 3, 19, 0, 19, 13, 0, 13, 13, 0, 0, 0, 11],[],[][4, 47],[48, 11, 6, 5],[23, 20, 28, 32, 1],[10, 25, 22],[30],[26, 31, 33],[29, 38, 41, 39, 16, 44],[15],[21, 19, 7, 36],[45, 24],[9, 18, 2, 37],[14, 34],[40, 43, 17],[],[42, 12, 49],[46, 27],[],[],[0, 13],[3, 8, 35]
00000000000000000000000000000000000000000000000000,00000001001000000001011001010000000010000000001000,00000000000000000000000000000000000000000000000000,00101000010000110110000000000000001001001001000100,00000000000000000000000000000000000000000000000000,00000000000000000000000000000000000000000000000000,00000000000000000000000000000000000000000000000000,00000000000000000000000000000000000000000000000000,00000000000000000000000000000000000000000000000000,00000000000000000000000000000000000000000000000000,00000000000000000000000000000000000000000000000000,00000000000000000000000000000000000000000000000000,00000000000000000000000000000000000000000000000000,00000000000000000000000000000000000000000000000000,00000000000000000000000000000000000000000000000000,00000000000000000000000000000000000000000000000000,11010110100101000000100100001000100100000000000010,00000000000010001000000010100111010000110110110001,00000000000000000000000000000000000000000000000000,00000000000000000000000000000000000000000000000000,[],[0, 0, 0, 0, 0, 0, 0, 13, 0, 0, 6, 0, 0, 0, 0, 0, 0, 0, 0, 13, 0, 6, 8, 0, 0, 13, 0, 8, 0, 0, 0, 0, 0, 0, 0, 0, 4, 0, 0, 0, 0, 0, 0, 0, 0, 0, 8, 0, 0, 0],[],[0, 0, 5, 0, 3, 0, 0, 0, 0, 2, 0, 0, 0, 0, 14, 3, 0, 3, 3, 0, 0, 0, 0, 0, 0, 0, 0, 0, 0, 0, 0, 0, 0, 0, 14, 0, 0, 5, 0, 0, 2, 0, 0, 2, 0, 0, 0, 14, 0, 0],[],[],[],[],[],[],[],[],[],[],[],[],[19, 12, 0, 19, 0, 10, 9, 0, 15, 0, 0, 9, 0, 10, 0, 0, 0, 0, 0, 0, 12, 0, 0, 15, 0, 0, 0, 0, 15, 0, 0, 0, 19, 0, 0, 15, 0, 0, 0, 0, 0, 0, 0, 0, 0, 0, 0, 0, 12, 0],[0, 0, 0, 0, 0, 0, 0, 0, 0, 0, 0, 0, 20, 0, 0, 0, 11, 0, 0, 0, 0, 0, 0, 0, 16, 0, 7, 0, 0, 16, 7, 11, 0, 11, 0, 0, 0, 0, 7, 17, 0, 7, 17, 0, 7, 7, 0, 0, 0, 17],[],[][8, 20],[2, 34, 9, 14],[1, 5, 6, 28, 32],[31, 33, 29],[22],[7, 36, 27, 21],[49, 38, 24, 41, 26, 44],[48, 13, 35, 11],[47, 43, 17],[],[10],[46],[37, 15],[42, 30, 16, 45, 39],[25, 19],[12],[4, 40],[0, 3, 23],[18],[]
00000000000000000000000000000000000000000000000000,00000001001000000001011001010000000010000000001000,00000000000000000000000000000000000000000000000000,00101000010000110110000000000000001001001001000100,00000000000000000000000000000000000000000000000000,00000000000000000000000000000000000000000000000000,00000000000000000000000000000000000000000000000000,00000000000000000000000000000000000000000000000000,00000000000000000000000000000000000000000000000000,00000000000000000000000000000000000000000000000000,00000000000000000000000000000000000000000000000000,00000000000000000000000000000000000000000000000000,00000000000000000000000000000000000000000000000000,00000000000000000000000000000000000000000000000000,00000000000000000000000000000000000000000000000000,00000000000000000000000000000000000000000000000000,11010110100101000000100100001000100100000000000010,00000000000010001000000010100111010000110110110001,00000000000000000000000000000000000000000000000000,00000000000000000000000000000000000000000000000000,[],[0, 0, 0, 0, 0, 0, 0, 14, 0, 0, 1, 0, 0, 0, 0, 0, 0, 0, 0, 1, 0, 1, 1, 0, 0, 14, 0, 13, 0, 0, 0, 0, 0, 0, 0, 0, 13, 0, 0, 0, 0, 0, 0, 0, 0, 0, 13, 0, 0, 0],[],[0, 0, 15, 0, 7, 0, 0, 0, 0, 7, 0, 0, 0, 0, 6, 10, 0, 10, 15, 0, 0, 0, 0, 0, 0, 0, 0, 0, 0, 0, 0, 0, 0, 0, 3, 0, 0, 15, 0, 0, 15, 0, 0, 3, 0, 0, 0, 7, 0, 0],[],[],[],[],[],[],[],[],[],[],[],[],[8, 11, 0, 5, 0, 8, 19, 0, 16, 0, 0, 8, 0, 5, 0, 0, 0, 0, 0, 0, 16, 0, 0, 11, 0, 0, 0, 0, 11, 0, 0, 0, 8, 0, 0, 5, 0, 0, 0, 0, 0, 0, 0, 0, 0, 0, 0, 0, 8, 0],[0, 0, 0, 0, 0, 0, 0, 0, 0, 0, 0, 0, 18, 0, 0, 0, 18, 0, 0, 0, 0, 0, 0, 0, 20, 0, 17, 0, 0, 4, 2, 2, 0, 17, 0, 0, 0, 0, 2, 4, 0, 4, 17, 0, 2, 20, 0, 0, 0, 20],[],[][49, 31, 24, 16, 44],[3, 13, 1, 6],[23, 11, 32, 28],[37, 2, 47, 15],[42, 33],[14, 4],[26, 41, 12, 30],[18, 9, 17],[],[36, 7, 21, 19],[20, 0, 35],[40],[27, 22],[29, 45],[39, 38],[8],[34, 43],[48, 5],[],[10, 25, 46]
00000000000000000000000000000000000000000000000000,00000001001000000001011001010000000010000000001000,00000000000000000000000000000000000000000000000000,00101000010000110110000000000000001001001001000100,00000000000000000000000000000000000000000000000000,00000000000000000000000000000000000000000000000000,00000000000000000000000000000000000000000000000000,00000000000000000000000000000000000000000000000000,00000000000000000000000000000000000000000000000000,00000000000000000000000000000000000000000000000000,00000000000000000000000000000000000000000000000000,00000000000000000000000000000000000000000000000000,00000000000000000000000000000000000000000000000000,00000000000000000000000000000000000000000000000000,00000000000000000000000000000000000000000000000000,00000000000000000000000000000000000000000000000000,11010110100101000000100100001000100100000000000010,00000000000010001000000010100111010000110110110001,00000000000000000000000000000000000000000000000000,00000000000000000000000000000000000000000000000000,[],[0, 0, 0, 0, 0, 0, 0, 2, 0, 0, 2, 0, 0, 0, 0, 0, 0, 0, 0, 17, 0, 16, 2, 0, 0, 17, 0, 13, 0, 0, 0, 0, 0, 0, 0, 0, 17, 0, 0, 0, 0, 0, 0, 0, 0, 0, 17, 0, 0, 0],[],[0, 0, 6, 0, 5, 0, 0, 0, 0, 6, 0, 0, 0, 0, 14, 10, 0, 6, 1, 0, 0, 0, 0, 0, 0, 0, 0, 0, 0, 0, 0, 0, 0, 0, 14, 0, 0, 14, 0, 0, 6, 0, 0, 1, 0, 0, 0, 14, 0, 0],[],[],[],[],[],[],[],[],[],[],[],[],[11, 4, 0, 4, 0, 19, 15, 0, 19, 0, 0, 15, 0, 11, 0, 0, 0, 0, 0, 0, 15, 0, 0, 15, 0, 0, 0, 0, 11, 0, 0, 0, 19, 0, 0, 4, 0, 0, 0, 0, 0, 0, 0, 0, 0, 0, 0, 0, 11, 0],[0, 0, 0, 0, 0, 0, 0, 0, 0, 0, 0, 0, 7, 0, 0, 0, 8, 0, 0, 0, 0, 0, 0, 0, 8, 0, 7, 0, 0, 12, 12, 12, 0, 8, 0, 0, 0, 0, 8, 7, 0, 20, 7, 0, 3, 7, 0, 0, 0, 20],[],[][6, 5, 1, 23, 48, 3],[13, 35, 11],[42, 45],[28, 20, 0],[37, 14, 18],[16, 39, 29],[33, 12, 26, 41, 49],[22, 27, 10],[],[34, 2],[40, 47, 43],[9],[15, 17, 4],[19],[30, 44, 24, 31],[36],[38],[7, 21, 46, 25],[],[8, 32]
